
  32    4
  10   10   10   10

   0   0   0   0   0   1 2 
   5  10  10  10  10   1 3 
   1  10  10  10  10   2 31 4 
   7  10  10  10  10   1 5 
   1  10  10  10  10   1 6 
   1  10  10  10  10   1 7 
   9  10  10  10  10   1 8 
   2  10  10  10  10   1 9 
   1  10  10  10  10   1 10 
   6  10  10  10  10   2 26 11 
   3  10  10  10  10   2 29 12 
   1  10  10  10  10   2 30 13 
   2  10  10  10  10   1 14 
   1  10  10  10  10   1 15 
   2  10  10  10  10   1 16 
   9  10  10  10  10   2 20 17 
   5  10  10  10  10   2 28 18 
   7  10  10  10  10   1 19 
   9  10  10  10  10   1 21 
   7  10  10  10  10   2 28 23 
   9  10  10  10  10   1 22 
  10  10  10  10  10   1 23 
   7  10  10  10  10   1 24 
   3  10  10  10  10   1 25 
   3  10  10  10  10   1 27 
   3  10  10  10  10   1 29 
   6  10  10  10  10   1 32
   7  10  10  10  10   1 32
  10  10  10  10  10   1 32
  10  10  10  10  10   1 32
   5  10  10  10  10   1 32
   0   0   0   0   0   0 
